0 50
2 98
7 70
15 61
14 80
26 94
24 56
32 84
37 92
30 54
40 74
45 78
50 100
58 74
52 51
65 72
69 79
62 89
75 68
84 73
89 82
99 99
95 77
93 63
100 50
95 44
58 49
73 41
85 36
90 34
64 33
78 31
73 27
64 23
89 15
100 4
50 0
19 3
45 22
42 47
35 36
27 31
23 41
5 48
31 14
13 13
11 19
1 1
